
variable    x index 1
variable    y index 1
variable    z index 1

variable    xx equal 8*$x
variable    yy equal 8*$y
variable    zz equal 8*$z

units       lj
atom_style  full 

variable T equal 2.0

lattice     sc 0.4
region      box block 0 ${xx} 0 ${yy} 0 ${zz}
create_box  1 box
create_atoms    1 box
mass        1 1.0

velocity    all create ${T} 87287 loop geom

pair_style  lj/cut 2.5
pair_coeff  1 1 1.0 1.0

neighbor    0.3 bin
neigh_modify    delay 0 every 5 check yes 

thermo_style custom step pe ke etotal temp press density
thermo 1000
#thermo_modify norm no

#fix     1 all nvt temp ${T} ${T} 0.1 


